38 37 36 32 30 31 29 28 27 26 25 24 21 22 23 12 13 14 15 16 11 10 9 17 18 19 20 568 569 570 8 7 6 5 572 573 0 4 1 2 3 455 456 457 458 459 460 571 468 469 467 466 465 464 463 462 461 497 496 470 471 472 473 474 567 475 476 477 478 479 480 481 482 483 485 484 536 535 487 486 490 529 528 526 491 492 493 524 525 523 522 521 520 494 495 518 519 517 516 515 514 527 512 513 511 510 509 237 240 243 242 241 301 302 508 507 506 307 303 304 306 305 318 319 320 321 317 316 314 315 374 373 375 376 377 378 379 380 381 445 444 443 446 447 448 449 441 450 451 311 312 313 310 309 308 505 504 503 502 498 501 500 499 452 453 440 442 439 454 438 437 436 435 434 433 432 430 431 429 428 427 426 423 422 421 420 419 417 418 410 411 412 356 402 403 401 360 361 359 358 357 355 354 353 413 416 415 414 352 351 350 349 348 347 362 363 364 346 345 344 343 342 365 367 368 369 370 398 397 399 400 404 405 406 407 408 409 384 383 424 425 382 386 385 387 388 389 390 392 391 393 394 395 396 371 372 322 323 324 325 326 327 328 329 366 330 331 332 340 341 339 338 337 336 333 335 334 283 284 285 286 287 280 281 282 279 278 288 289 290 277 276 275 274 273 272 271 267 268 269 270 293 292 291 294 295 296 297 298 299 265 266 264 263 262 261 260 259 258 300 257 256 255 253 254 252 251 250 249 248 244 245 247 246 239 238 236 235 234 232 233 530 531 532 489 488 534 533 231 230 229 228 227 189 225 226 190 191 192 193 219 218 220 221 222 224 223 217 216 215 214 213 212 211 210 209 205 206 207 208 203 204 202 201 200 199 198 197 196 195 194 184 183 185 186 188 187 538 537 539 540 176 177 178 182 179 181 180 169 168 162 163 167 166 164 165 154 155 159 156 153 157 158 145 146 147 148 152 149 150 151 142 143 144 141 140 136 135 137 139 138 129 130 131 132 133 134 160 161 113 112 114 111 110 172 170 171 175 174 173 108 109 107 542 541 544 545 546 547 543 103 104 105 106 117 115 116 128 127 126 125 124 69 70 68 67 66 65 72 71 123 122 121 120 118 119 73 74 75 64 76 77 88 89 94 97 95 96 98 99 100 102 101 551 550 548 549 564 566 565 563 562 561 560 559 558 557 556 552 553 554 555 45 46 91 92 93 90 87 86 85 50 51 84 81 80 79 78 62 63 61 60 59 58 57 82 83 56 55 53 52 54 49 48 47 44 43 42 39 41 40 35 34 33